Copyright (C) 2013-2015, Filipe Brandao
Build (method = -2)
  #dp: 3226
  Step-3' Graph: 71 vertices and 1071 arcs (0.00s)
  Step-4' Graph: 71 vertices and 1071 arcs (0.00s)
  #V4/#V3 = 1.00
  #A4/#A3 = 1.00
Ready! (0.00s)
Optimize a model with 144 rows, 1072 columns and 3082 nonzeros
Found heuristic solution: objective 421
Presolve removed 38 rows and 46 columns
Presolve time: 0.01s
Presolved: 106 rows, 1026 columns, 2934 nonzeros
Variable types: 0 continuous, 1026 integer (21 binary)
Optimize a model with 106 rows, 1026 columns and 2934 nonzeros
Presolved: 106 rows, 1026 columns, 2934 nonzeros

Root barrier log...

Ordering time: 0.00s

Barrier statistics:
 AA' NZ     : 1.578e+03
 Factor NZ  : 2.916e+03
 Factor Ops : 1.092e+05 (less than 1 second per iteration)
 Threads    : 1

                  Objective                Residual
Iter       Primal          Dual         Primal    Dual     Compl     Time
   0   5.05324637e+03 -1.51218458e+04  2.46e+04 6.50e-02  6.52e+01     0s
   1   1.53732756e+03 -5.04810775e+03  3.84e+03 9.99e-16  1.12e+01     0s
   2   5.33153424e+02 -1.73781318e+03  2.20e+02 1.58e-14  1.45e+00     0s
   3   3.97920538e+02 -6.37979842e+02  1.25e+01 6.22e-15  5.10e-01     0s
   4   3.20009996e+02 -1.28285888e+01  1.83e+00 2.00e-15  1.61e-01     0s
   5   2.87954398e+02  9.18030097e+01  5.25e-01 1.33e-15  9.43e-02     0s
   6   2.70221109e+02  1.89856987e+02  1.64e-01 7.41e-16  3.86e-02     0s
   7   2.63074916e+02  2.46677303e+02  5.95e-02 7.91e-16  7.89e-03     0s
   8   2.60220881e+02  2.59518000e+02  3.47e-03 7.70e-16  3.39e-04     0s
   9   2.60002034e+02  2.59997596e+02  1.01e-05 6.81e-16  2.13e-06     0s
  10   2.60000002e+02  2.59999998e+02  1.69e-11 6.19e-16  2.13e-09     0s
  11   2.60000000e+02  2.60000000e+02  9.85e-12 7.05e-16  2.13e-12     0s

Barrier solved model in 11 iterations and 0.01 seconds
Optimal objective 2.60000000e+02


Root relaxation: objective 2.600000e+02, 320 iterations, 0.01 seconds

    Nodes    |    Current Node    |     Objective Bounds      |     Work
 Expl Unexpl |  Obj  Depth IntInf | Incumbent    BestBd   Gap | It/Node Time

*    0     0               0     260.0000000  260.00000  0.00%     -    0s

Explored 0 nodes (320 simplex iterations) in 0.01 seconds
Thread count was 1 (of 4 available processors)

Optimal solution found (tolerance 0.00e+00)
Best objective 2.600000000000e+02, best bound 2.600000000000e+02, gap 0.0%
Preprocessing time: 0.00 seconds
Gurobi run time: 0.01 seconds
Total run time: 0.01 seconds
Objective: 260
Solution:
4 x [i=1, i=73]
6 x [i=2, i=72]
3 x [i=2, i=73]
7 x [i=3, i=71]
2 x [i=3, i=73]
4 x [i=4, i=70]
2 x [i=5, i=69]
4 x [i=5, i=70]
7 x [i=6, i=69]
7 x [i=7, i=67]
3 x [i=8, i=66]
2 x [i=8, i=67]
1 x [i=8, i=68]
3 x [i=9]
7 x [i=10, i=64]
13 x [i=11, i=68]
5 x [i=12, i=62]
6 x [i=13, i=63]
9 x [i=14, i=61]
5 x [i=15, i=59]
4 x [i=15, i=60]
11 x [i=16]
1 x [i=16, i=58]
3 x [i=17, i=58]
9 x [i=18, i=56]
1 x [i=18, i=60]
6 x [i=19, i=55]
5 x [i=19, i=57]
5 x [i=20, i=54]
4 x [i=21, i=53]
1 x [i=21, i=54]
1 x [i=21, i=63]
6 x [i=22, i=52]
8 x [i=23, i=51]
6 x [i=24, i=50]
1 x [i=24, i=51]
1 x [i=24, i=52]
1 x [i=24, i=57]
1 x [i=24, i=69]
4 x [i=25]
1 x [i=25, i=49]
6 x [i=26, i=49]
1 x [i=27, i=47]
5 x [i=27, i=48]
1 x [i=27, i=49]
3 x [i=27, i=65]
7 x [i=28, i=46]
2 x [i=29, i=45]
1 x [i=29, i=46]
4 x [i=30, i=44]
2 x [i=30, i=45]
3 x [i=31, i=43]
7 x [i=31, i=45]
2 x [i=32]
5 x [i=32, i=42]
2 x [i=32, i=43]
7 x [i=33, i=41]
3 x [i=34, i=40]
2 x [i=34, i=41]
1 x [i=35, i=39]
4 x [i=35, i=40]
3 x [i=36, i=38]
1 x [i=37, i=38]
5 x [i=37, i=37]
3 x [i=38, i=39]
